c PMC file for PBN ISCAS/c1355_distill_ISCAS/c1355_miter written by probABC
p cnf 1085 2664
c ind 1 2 3 4 5 6 7 8 9 10 11 12 13 14 15 16 17 18 19 20 21 22 23 24 25 26 27 28 29 30 31 32 33 34 35 36 37 38 39 40 41 878 879 880 881 882 883 884 885 886 887 888 889 890 891 892 893 894 895 896 897 898 899 900 901 902 903 904 905 906 907 908 909 910 911 912 913 914 915 916 917 918 919 920 921 922 923 924 925 926 927 928 929 930 931 932 933 934 935 936 937 938 939 940 941 942 943 944 945 946 947 948 949 950 951 952 953 954 955 956 957 958 959 960 961 962 963 964 965 966 967 968 969 970 971 972 973 974 975 976 977 978 979 980 981 982 983 984 985 986 987 988 989 990 991 992 993 994 995 996 997 998 999 1000 1001 1002 1003 1004 1005 1006 1007 1008 1009 1010 1011 1012 1013 1014 1015 1016 1017 1018 1019 1020 1021 1022 1023 1024 1025 1026 1027 1028 1029 1030 1031 1032 1033 0
95 -1 2 0
-95 1 0
-95 -2 0
96 1 -2 0
-96 -1 0
-96 2 0
97 95 96 0
-97 -95 0
-97 -96 0
98 3 -4 0
-98 -3 0
-98 4 0
99 -3 4 0
-99 3 0
-99 -4 0
100 98 99 0
-100 -98 0
-100 -99 0
101 97 -100 0
-101 -97 0
-101 100 0
102 -97 100 0
-102 97 0
-102 -100 0
103 101 102 0
-103 -101 0
-103 -102 0
104 -25 29 0
-104 25 0
-104 -29 0
105 25 -29 0
-105 -25 0
-105 29 0
106 104 105 0
-106 -104 0
-106 -105 0
107 7 8 0
-107 -7 0
-107 -8 0
108 -7 -8 0
-108 7 0
-108 8 0
109 107 108 0
-109 -107 0
-109 -108 0
110 -5 6 0
-110 5 0
-110 -6 0
111 5 -6 0
-111 -5 0
-111 6 0
112 110 111 0
-112 -110 0
-112 -111 0
113 -109 -112 0
-113 109 0
-113 112 0
114 109 112 0
-114 -109 0
-114 -112 0
115 113 114 0
-115 -113 0
-115 -114 0
116 -37 -41 0
-116 37 0
-116 41 0
117 -17 21 0
-117 17 0
-117 -21 0
118 17 -21 0
-118 -17 0
-118 21 0
119 117 118 0
-119 -117 0
-119 -118 0
120 -116 119 0
-120 116 0
-120 -119 0
121 116 -119 0
-121 -116 0
-121 119 0
122 120 121 0
-122 -120 0
-122 -121 0
123 -115 -122 0
-123 115 0
-123 122 0
124 115 122 0
-124 -115 0
-124 -122 0
125 123 124 0
-125 -123 0
-125 -124 0
126 -106 125 0
-126 106 0
-126 -125 0
127 106 -125 0
-127 -106 0
-127 125 0
128 126 127 0
-128 -126 0
-128 -127 0
129 -103 -128 0
-129 103 0
-129 128 0
130 103 128 0
-130 -103 0
-130 -128 0
131 129 130 0
-131 -129 0
-131 -130 0
132 -34 -41 0
-132 34 0
-132 41 0
133 10 14 0
-133 -10 0
-133 -14 0
134 -10 -14 0
-134 10 0
-134 14 0
135 133 134 0
-135 -133 0
-135 -134 0
136 -132 135 0
-136 132 0
-136 -135 0
137 132 -135 0
-137 -132 0
-137 135 0
138 136 137 0
-138 -136 0
-138 -137 0
139 2 6 0
-139 -2 0
-139 -6 0
140 -2 -6 0
-140 2 0
-140 6 0
141 139 140 0
-141 -139 0
-141 -140 0
142 31 32 0
-142 -31 0
-142 -32 0
143 -31 -32 0
-143 31 0
-143 32 0
144 142 143 0
-144 -142 0
-144 -143 0
145 -29 30 0
-145 29 0
-145 -30 0
146 29 -30 0
-146 -29 0
-146 30 0
147 145 146 0
-147 -145 0
-147 -146 0
148 -144 -147 0
-148 144 0
-148 147 0
149 144 147 0
-149 -144 0
-149 -147 0
150 148 149 0
-150 -148 0
-150 -149 0
151 -141 150 0
-151 141 0
-151 -150 0
152 141 -150 0
-152 -141 0
-152 150 0
153 151 152 0
-153 -151 0
-153 -152 0
154 -138 -153 0
-154 138 0
-154 153 0
155 138 153 0
-155 -138 0
-155 -153 0
156 154 155 0
-156 -154 0
-156 -155 0
157 -25 26 0
-157 25 0
-157 -26 0
158 25 -26 0
-158 -25 0
-158 26 0
159 157 158 0
-159 -157 0
-159 -158 0
160 27 -28 0
-160 -27 0
-160 28 0
161 -27 28 0
-161 27 0
-161 -28 0
162 160 161 0
-162 -160 0
-162 -161 0
163 159 -162 0
-163 -159 0
-163 162 0
164 -159 162 0
-164 159 0
-164 -162 0
165 163 164 0
-165 -163 0
-165 -164 0
166 -156 -165 0
-166 156 0
-166 165 0
167 156 165 0
-167 -156 0
-167 -165 0
168 166 167 0
-168 -166 0
-168 -167 0
169 -33 -41 0
-169 33 0
-169 41 0
170 -1 5 0
-170 1 0
-170 -5 0
171 1 -5 0
-171 -1 0
-171 5 0
172 170 171 0
-172 -170 0
-172 -171 0
173 -9 13 0
-173 9 0
-173 -13 0
174 9 -13 0
-174 -9 0
-174 13 0
175 173 174 0
-175 -173 0
-175 -174 0
176 -172 -175 0
-176 172 0
-176 175 0
177 172 175 0
-177 -172 0
-177 -175 0
178 176 177 0
-178 -176 0
-178 -177 0
179 -169 178 0
-179 169 0
-179 -178 0
180 169 -178 0
-180 -169 0
-180 178 0
181 179 180 0
-181 -179 0
-181 -180 0
182 -21 22 0
-182 21 0
-182 -22 0
183 21 -22 0
-183 -21 0
-183 22 0
184 182 183 0
-184 -182 0
-184 -183 0
185 -23 24 0
-185 23 0
-185 -24 0
186 23 -24 0
-186 -23 0
-186 24 0
187 185 186 0
-187 -185 0
-187 -186 0
188 184 187 0
-188 -184 0
-188 -187 0
189 -184 -187 0
-189 184 0
-189 187 0
190 188 189 0
-190 -188 0
-190 -189 0
191 -19 20 0
-191 19 0
-191 -20 0
192 19 -20 0
-192 -19 0
-192 20 0
193 191 192 0
-193 -191 0
-193 -192 0
194 17 -18 0
-194 -17 0
-194 18 0
195 -17 18 0
-195 17 0
-195 -18 0
196 194 195 0
-196 -194 0
-196 -195 0
197 -193 196 0
-197 193 0
-197 -196 0
198 193 -196 0
-198 -193 0
-198 196 0
199 197 198 0
-199 -197 0
-199 -198 0
200 -190 199 0
-200 190 0
-200 -199 0
201 190 -199 0
-201 -190 0
-201 199 0
202 200 201 0
-202 -200 0
-202 -201 0
203 -181 -202 0
-203 181 0
-203 202 0
204 181 202 0
-204 -181 0
-204 -202 0
205 203 204 0
-205 -203 0
-205 -204 0
206 168 205 0
-206 -168 0
-206 -205 0
207 150 -190 0
-207 -150 0
-207 190 0
208 -150 190 0
-208 150 0
-208 -190 0
209 207 208 0
-209 -207 0
-209 -208 0
210 -36 -41 0
-210 36 0
-210 41 0
211 12 16 0
-211 -12 0
-211 -16 0
212 -12 -16 0
-212 12 0
-212 16 0
213 211 212 0
-213 -211 0
-213 -212 0
214 -4 8 0
-214 4 0
-214 -8 0
215 4 -8 0
-215 -4 0
-215 8 0
216 214 215 0
-216 -214 0
-216 -215 0
217 -213 -216 0
-217 213 0
-217 216 0
218 213 216 0
-218 -213 0
-218 -216 0
219 217 218 0
-219 -217 0
-219 -218 0
220 -210 219 0
-220 210 0
-220 -219 0
221 210 -219 0
-221 -210 0
-221 219 0
222 220 221 0
-222 -220 0
-222 -221 0
223 -209 -222 0
-223 209 0
-223 222 0
224 209 222 0
-224 -209 0
-224 -222 0
225 223 224 0
-225 -223 0
-225 -224 0
226 11 15 0
-226 -11 0
-226 -15 0
227 -11 -15 0
-227 11 0
-227 15 0
228 226 227 0
-228 -226 0
-228 -227 0
229 -3 7 0
-229 3 0
-229 -7 0
230 3 -7 0
-230 -3 0
-230 7 0
231 229 230 0
-231 -229 0
-231 -230 0
232 -228 -231 0
-232 228 0
-232 231 0
233 228 231 0
-233 -228 0
-233 -231 0
234 232 233 0
-234 -232 0
-234 -233 0
235 -35 -41 0
-235 35 0
-235 41 0
236 199 235 0
-236 -199 0
-236 -235 0
237 -199 -235 0
-237 199 0
-237 235 0
238 236 237 0
-238 -236 0
-238 -237 0
239 165 -238 0
-239 -165 0
-239 238 0
240 -165 238 0
-240 165 0
-240 -238 0
241 239 240 0
-241 -239 0
-241 -240 0
242 -234 -241 0
-242 234 0
-242 241 0
243 234 241 0
-243 -234 0
-243 -241 0
244 242 243 0
-244 -242 0
-244 -243 0
245 225 -244 0
-245 -225 0
-245 244 0
246 -15 16 0
-246 15 0
-246 -16 0
247 15 -16 0
-247 -15 0
-247 16 0
248 246 247 0
-248 -246 0
-248 -247 0
249 -13 14 0
-249 13 0
-249 -14 0
250 13 -14 0
-250 -13 0
-250 14 0
251 249 250 0
-251 -249 0
-251 -250 0
252 -248 -251 0
-252 248 0
-252 251 0
253 248 251 0
-253 -248 0
-253 -251 0
254 252 253 0
-254 -252 0
-254 -253 0
255 -20 24 0
-255 20 0
-255 -24 0
256 20 -24 0
-256 -20 0
-256 24 0
257 255 256 0
-257 -255 0
-257 -256 0
258 -28 32 0
-258 28 0
-258 -32 0
259 28 -32 0
-259 -28 0
-259 32 0
260 258 259 0
-260 -258 0
-260 -259 0
261 -257 -260 0
-261 257 0
-261 260 0
262 257 260 0
-262 -257 0
-262 -260 0
263 261 262 0
-263 -261 0
-263 -262 0
264 -40 -41 0
-264 40 0
-264 41 0
265 -115 -264 0
-265 115 0
-265 264 0
266 115 264 0
-266 -115 0
-266 -264 0
267 265 266 0
-267 -265 0
-267 -266 0
268 -263 267 0
-268 263 0
-268 -267 0
269 263 -267 0
-269 -263 0
-269 267 0
270 268 269 0
-270 -268 0
-270 -269 0
271 -254 -270 0
-271 254 0
-271 270 0
272 254 270 0
-272 -254 0
-272 -270 0
273 271 272 0
-273 -271 0
-273 -272 0
274 -19 23 0
-274 19 0
-274 -23 0
275 19 -23 0
-275 -19 0
-275 23 0
276 274 275 0
-276 -274 0
-276 -275 0
277 11 12 0
-277 -11 0
-277 -12 0
278 -11 -12 0
-278 11 0
-278 12 0
279 277 278 0
-279 -277 0
-279 -278 0
280 -9 10 0
-280 9 0
-280 -10 0
281 9 -10 0
-281 -9 0
-281 10 0
282 280 281 0
-282 -280 0
-282 -281 0
283 -279 -282 0
-283 279 0
-283 282 0
284 279 282 0
-284 -279 0
-284 -282 0
285 283 284 0
-285 -283 0
-285 -284 0
286 -39 -41 0
-286 39 0
-286 41 0
287 27 -31 0
-287 -27 0
-287 31 0
288 -27 31 0
-288 27 0
-288 -31 0
289 287 288 0
-289 -287 0
-289 -288 0
290 -286 289 0
-290 286 0
-290 -289 0
291 286 -289 0
-291 -286 0
-291 289 0
292 290 291 0
-292 -290 0
-292 -291 0
293 -285 -292 0
-293 285 0
-293 292 0
294 285 292 0
-294 -285 0
-294 -292 0
295 293 294 0
-295 -293 0
-295 -294 0
296 -276 295 0
-296 276 0
-296 -295 0
297 276 -295 0
-297 -276 0
-297 295 0
298 296 297 0
-298 -296 0
-298 -297 0
299 -103 -298 0
-299 103 0
-299 298 0
300 103 298 0
-300 -103 0
-300 -298 0
301 299 300 0
-301 -299 0
-301 -300 0
302 -273 301 0
-302 273 0
-302 -301 0
303 273 -301 0
-303 -273 0
-303 301 0
304 302 303 0
-304 -302 0
-304 -303 0
305 -38 -41 0
-305 38 0
-305 41 0
306 26 30 0
-306 -26 0
-306 -30 0
307 -26 -30 0
-307 26 0
-307 30 0
308 306 307 0
-308 -306 0
-308 -307 0
309 -18 22 0
-309 18 0
-309 -22 0
310 18 -22 0
-310 -18 0
-310 22 0
311 309 310 0
-311 -309 0
-311 -310 0
312 -308 -311 0
-312 308 0
-312 311 0
313 308 311 0
-313 -308 0
-313 -311 0
314 312 313 0
-314 -312 0
-314 -313 0
315 -305 314 0
-315 305 0
-315 -314 0
316 305 -314 0
-316 -305 0
-316 314 0
317 315 316 0
-317 -315 0
-317 -316 0
318 254 -285 0
-318 -254 0
-318 285 0
319 -254 285 0
-319 254 0
-319 -285 0
320 318 319 0
-320 -318 0
-320 -319 0
321 -317 -320 0
-321 317 0
-321 320 0
322 317 320 0
-322 -317 0
-322 -320 0
323 321 322 0
-323 -321 0
-323 -322 0
324 131 323 0
-324 -131 0
-324 -323 0
325 304 -324 0
-325 -304 0
-325 324 0
326 131 -323 0
-326 -131 0
-326 323 0
327 -131 323 0
-327 131 0
-327 -323 0
328 326 327 0
-328 -326 0
-328 -327 0
329 273 301 0
-329 -273 0
-329 -301 0
330 328 -329 0
-330 -328 0
-330 329 0
331 325 330 0
-331 -325 0
-331 -330 0
332 -245 331 0
-332 245 0
-332 -331 0
333 -206 -332 0
-333 206 0
-333 332 0
334 -131 -333 0
-334 131 0
-334 333 0
335 51 106 0
-335 -51 0
-335 -106 0
336 -51 -106 0
-336 51 0
-336 106 0
337 335 336 0
-337 -335 0
-337 -336 0
338 52 337 0
-338 -52 0
-338 -337 0
339 -116 338 0
-339 116 0
-339 -338 0
340 116 -338 0
-340 -116 0
-340 338 0
341 339 340 0
-341 -339 0
-341 -340 0
342 97 -99 0
-342 -97 0
-342 99 0
343 -97 99 0
-343 97 0
-343 -99 0
344 342 343 0
-344 -342 0
-344 -343 0
345 53 98 0
-345 -53 0
-345 -98 0
346 344 -345 0
-346 -344 0
-346 345 0
347 -344 345 0
-347 344 0
-347 -345 0
348 346 347 0
-348 -346 0
-348 -347 0
349 54 348 0
-349 -54 0
-349 -348 0
350 -52 -337 0
-350 52 0
-350 337 0
351 -50 118 0
-351 50 0
-351 -118 0
352 50 -118 0
-352 -50 0
-352 118 0
353 117 351 0
-353 -117 0
-353 -351 0
354 352 -353 0
-354 -352 0
-354 353 0
355 350 354 0
-355 -350 0
-355 -354 0
356 -349 355 0
-356 349 0
-356 -355 0
357 349 -355 0
-357 -349 0
-357 355 0
358 356 357 0
-358 -356 0
-358 -357 0
359 -54 -348 0
-359 54 0
-359 348 0
360 115 359 0
-360 -115 0
-360 -359 0
361 -358 360 0
-361 358 0
-361 -360 0
362 358 -360 0
-362 -358 0
-362 360 0
363 361 362 0
-363 -361 0
-363 -362 0
364 -341 -363 0
-364 341 0
-364 363 0
365 341 363 0
-365 -341 0
-365 -363 0
366 364 365 0
-366 -364 0
-366 -365 0
367 -64 161 0
-367 64 0
-367 -161 0
368 64 -161 0
-368 -64 0
-368 161 0
369 160 367 0
-369 -160 0
-369 -367 0
370 368 -369 0
-370 -368 0
-370 369 0
371 63 159 0
-371 -63 0
-371 -159 0
372 -63 -159 0
-372 63 0
-372 159 0
373 371 372 0
-373 -371 0
-373 -372 0
374 -65 -373 0
-374 65 0
-374 373 0
375 65 373 0
-375 -65 0
-375 -373 0
376 374 375 0
-376 -374 0
-376 -375 0
377 370 376 0
-377 -370 0
-377 -376 0
378 -370 375 0
-378 370 0
-378 -375 0
379 377 378 0
-379 -377 0
-379 -378 0
380 -235 379 0
-380 235 0
-380 -379 0
381 235 -379 0
-381 -235 0
-381 379 0
382 380 381 0
-382 -380 0
-382 -381 0
383 44 193 0
-383 -44 0
-383 -193 0
384 -45 383 0
-384 45 0
-384 -383 0
385 45 -383 0
-385 -45 0
-385 383 0
386 384 385 0
-386 -384 0
-386 -385 0
387 43 196 0
-387 -43 0
-387 -196 0
388 -44 -193 0
-388 44 0
-388 193 0
389 -43 194 0
-389 43 0
-389 -194 0
390 387 389 0
-390 -387 0
-390 -389 0
391 388 -390 0
-391 -388 0
-391 390 0
392 -386 -391 0
-392 386 0
-392 391 0
393 386 391 0
-393 -386 0
-393 -391 0
394 392 393 0
-394 -392 0
-394 -393 0
395 66 394 0
-395 -66 0
-395 -394 0
396 -66 -394 0
-396 66 0
-396 394 0
397 395 396 0
-397 -395 0
-397 -396 0
398 234 -397 0
-398 -234 0
-398 397 0
399 -234 397 0
-399 234 0
-399 -397 0
400 398 399 0
-400 -398 0
-400 -399 0
401 -382 -400 0
-401 382 0
-401 400 0
402 382 400 0
-402 -382 0
-402 -400 0
403 401 402 0
-403 -401 0
-403 -402 0
404 184 -188 0
-404 -184 0
-404 188 0
405 -46 404 0
-405 46 0
-405 -404 0
406 46 190 0
-406 -46 0
-406 -190 0
407 405 406 0
-407 -405 0
-407 -406 0
408 -150 -210 0
-408 150 0
-408 210 0
409 150 210 0
-409 -150 0
-409 -210 0
410 408 409 0
-410 -408 0
-410 -409 0
411 -67 410 0
-411 67 0
-411 -410 0
412 67 -410 0
-412 -67 0
-412 410 0
413 411 412 0
-413 -411 0
-413 -412 0
414 -407 -413 0
-414 407 0
-414 413 0
415 407 413 0
-415 -407 0
-415 -413 0
416 414 415 0
-416 -414 0
-416 -415 0
417 -219 416 0
-417 219 0
-417 -416 0
418 219 -416 0
-418 -219 0
-418 416 0
419 -68 418 0
-419 68 0
-419 -418 0
420 68 -418 0
-420 -68 0
-420 418 0
421 417 419 0
-421 -417 0
-421 -419 0
422 420 -421 0
-422 -420 0
-422 421 0
423 403 422 0
-423 -403 0
-423 -422 0
424 47 -394 0
-424 -47 0
-424 394 0
425 -47 394 0
-425 47 0
-425 -394 0
426 407 425 0
-426 -407 0
-426 -425 0
427 -424 426 0
-427 424 0
-427 -426 0
428 424 -426 0
-428 -424 0
-428 426 0
429 427 428 0
-429 -427 0
-429 -428 0
430 169 429 0
-430 -169 0
-430 -429 0
431 48 430 0
-431 -48 0
-431 -430 0
432 42 176 0
-432 -42 0
-432 -176 0
433 -431 432 0
-433 431 0
-433 -432 0
434 431 -432 0
-434 -431 0
-434 432 0
435 433 434 0
-435 -433 0
-435 -434 0
436 -169 -429 0
-436 169 0
-436 429 0
437 -49 177 0
-437 49 0
-437 -177 0
438 49 -177 0
-438 -49 0
-438 177 0
439 437 438 0
-439 -437 0
-439 -438 0
440 -436 439 0
-440 436 0
-440 -439 0
441 436 -439 0
-441 -436 0
-441 439 0
442 440 441 0
-442 -440 0
-442 -441 0
443 -435 -442 0
-443 435 0
-443 442 0
444 435 442 0
-444 -435 0
-444 -442 0
445 443 444 0
-445 -443 0
-445 -444 0
446 -156 379 0
-446 156 0
-446 -379 0
447 156 -379 0
-447 -156 0
-447 379 0
448 446 447 0
-448 -446 0
-448 -447 0
449 445 448 0
-449 -445 0
-449 -448 0
450 -55 254 0
-450 55 0
-450 -254 0
451 55 -254 0
-451 -55 0
-451 254 0
452 450 451 0
-452 -450 0
-452 -451 0
453 62 261 0
-453 -62 0
-453 -261 0
454 267 453 0
-454 -267 0
-454 -453 0
455 -267 -453 0
-455 267 0
-455 453 0
456 454 455 0
-456 -454 0
-456 -455 0
457 262 -456 0
-457 -262 0
-457 456 0
458 -262 456 0
-458 262 0
-458 -456 0
459 457 458 0
-459 -457 0
-459 -458 0
460 -452 -459 0
-460 452 0
-460 459 0
461 452 459 0
-461 -452 0
-461 -459 0
462 460 461 0
-462 -460 0
-462 -461 0
463 285 -305 0
-463 -285 0
-463 305 0
464 -285 305 0
-464 285 0
-464 -305 0
465 463 464 0
-465 -463 0
-465 -464 0
466 -452 -465 0
-466 452 0
-466 465 0
467 452 465 0
-467 -452 0
-467 -465 0
468 466 467 0
-468 -466 0
-468 -467 0
469 314 468 0
-469 -314 0
-469 -468 0
470 57 -469 0
-470 -57 0
-470 469 0
471 -57 469 0
-471 57 0
-471 -469 0
472 470 471 0
-472 -470 0
-472 -471 0
473 -314 -468 0
-473 314 0
-473 468 0
474 56 473 0
-474 -56 0
-474 -473 0
475 -472 -474 0
-475 472 0
-475 474 0
476 472 474 0
-476 -472 0
-476 -474 0
477 475 476 0
-477 -475 0
-477 -476 0
478 -366 -477 0
-478 366 0
-478 477 0
479 -58 -276 0
-479 58 0
-479 276 0
480 58 276 0
-480 -58 0
-480 -276 0
481 479 480 0
-481 -479 0
-481 -480 0
482 61 286 0
-482 -61 0
-482 -286 0
483 -288 482 0
-483 288 0
-483 -482 0
484 288 -482 0
-484 -288 0
-484 482 0
485 483 484 0
-485 -483 0
-485 -484 0
486 59 287 0
-486 -59 0
-486 -287 0
487 485 -486 0
-487 -485 0
-487 486 0
488 -485 486 0
-488 485 0
-488 -486 0
489 487 488 0
-489 -487 0
-489 -488 0
490 60 348 0
-490 -60 0
-490 -348 0
491 -285 -490 0
-491 285 0
-491 490 0
492 -61 -286 0
-492 61 0
-492 286 0
493 -60 -348 0
-493 60 0
-493 348 0
494 285 490 0
-494 -285 0
-494 -490 0
495 493 -494 0
-495 -493 0
-495 494 0
496 491 492 0
-496 -491 0
-496 -492 0
497 495 -496 0
-497 -495 0
-497 496 0
498 -489 497 0
-498 489 0
-498 -497 0
499 489 -497 0
-499 -489 0
-499 497 0
500 498 499 0
-500 -498 0
-500 -499 0
501 -481 -500 0
-501 481 0
-501 500 0
502 481 500 0
-502 -481 0
-502 -500 0
503 501 502 0
-503 -501 0
-503 -502 0
504 -462 -478 0
-504 462 0
-504 478 0
505 503 -504 0
-505 -503 0
-505 504 0
506 -80 505 0
-506 80 0
-506 -505 0
507 80 -505 0
-507 -80 0
-507 505 0
508 462 503 0
-508 -462 0
-508 -503 0
509 -462 -503 0
-509 462 0
-509 503 0
510 508 509 0
-510 -508 0
-510 -509 0
511 366 477 0
-511 -366 0
-511 -477 0
512 -462 -511 0
-512 462 0
-512 511 0
513 -510 512 0
-513 510 0
-513 -512 0
514 366 -477 0
-514 -366 0
-514 477 0
515 79 514 0
-515 -79 0
-515 -514 0
516 -79 -514 0
-516 79 0
-516 514 0
517 515 516 0
-517 -515 0
-517 -516 0
518 510 517 0
-518 -510 0
-518 -517 0
519 513 518 0
-519 -513 0
-519 -518 0
520 81 519 0
-520 -81 0
-520 -519 0
521 -81 -519 0
-521 81 0
-521 519 0
522 520 521 0
-522 -520 0
-522 -521 0
523 506 507 0
-523 -506 0
-523 -507 0
524 522 -523 0
-524 -522 0
-524 523 0
525 -449 524 0
-525 449 0
-525 -524 0
526 -423 -525 0
-526 423 0
-526 525 0
527 -366 -526 0
-527 366 0
-527 526 0
528 -17 -82 0
-528 17 0
-528 82 0
529 -527 -528 0
-529 527 0
-529 528 0
530 82 527 0
-530 -82 0
-530 -527 0
531 529 530 0
-531 -529 0
-531 -530 0
532 334 -531 0
-532 -334 0
-532 531 0
533 -403 422 0
-533 403 0
-533 -422 0
534 -449 -533 0
-534 449 0
-534 533 0
535 -445 -448 0
-535 445 0
-535 448 0
536 -533 -535 0
-536 533 0
-536 535 0
537 -69 536 0
-537 69 0
-537 -536 0
538 69 -536 0
-538 -69 0
-538 536 0
539 -403 -422 0
-539 403 0
-539 422 0
540 423 539 0
-540 -423 0
-540 -539 0
541 448 540 0
-541 -448 0
-541 -540 0
542 -445 -541 0
-542 445 0
-542 541 0
543 70 542 0
-543 -70 0
-543 -542 0
544 -70 -542 0
-544 70 0
-544 542 0
545 543 544 0
-545 -543 0
-545 -544 0
546 534 537 0
-546 -534 0
-546 -537 0
547 538 545 0
-547 -538 0
-547 -545 0
548 -546 -547 0
-548 546 0
-548 547 0
549 -478 548 0
-549 478 0
-549 -548 0
550 -509 -549 0
-550 509 0
-550 549 0
551 445 -550 0
-551 -445 0
-551 550 0
552 -1 551 0
-552 1 0
-552 -551 0
553 1 -551 0
-553 -1 0
-553 551 0
554 552 553 0
-554 -552 0
-554 -553 0
555 -168 -205 0
-555 168 0
-555 205 0
556 206 555 0
-556 -206 0
-556 -555 0
557 225 244 0
-557 -225 0
-557 -244 0
558 556 -557 0
-558 -556 0
-558 557 0
559 -225 244 0
-559 225 0
-559 -244 0
560 245 559 0
-560 -245 0
-560 -559 0
561 168 -205 0
-561 -168 0
-561 205 0
562 560 -561 0
-562 -560 0
-562 561 0
563 558 562 0
-563 -558 0
-563 -562 0
564 -303 563 0
-564 303 0
-564 -563 0
565 -327 -564 0
-565 327 0
-565 564 0
566 205 -565 0
-566 -205 0
-566 565 0
567 -1 566 0
-567 1 0
-567 -566 0
568 1 -566 0
-568 -1 0
-568 566 0
569 567 568 0
-569 -567 0
-569 -568 0
570 554 -569 0
-570 -554 0
-570 569 0
571 524 -535 0
-571 -524 0
-571 535 0
572 -423 -571 0
-572 423 0
-572 571 0
573 -90 572 0
-573 90 0
-573 -572 0
574 90 -572 0
-574 -90 0
-574 572 0
575 573 574 0
-575 -573 0
-575 -574 0
576 462 575 0
-576 -462 0
-576 -575 0
577 -332 -555 0
-577 332 0
-577 555 0
578 -273 -577 0
-578 273 0
-578 577 0
579 576 -578 0
-579 -576 0
-579 578 0
580 -508 -549 0
-580 508 0
-580 549 0
581 -448 -580 0
-581 448 0
-581 580 0
582 -6 581 0
-582 6 0
-582 -581 0
583 6 -581 0
-583 -6 0
-583 581 0
584 582 583 0
-584 -582 0
-584 -583 0
585 -302 563 0
-585 302 0
-585 -563 0
586 -327 -585 0
-586 327 0
-586 585 0
587 -168 -586 0
-587 168 0
-587 586 0
588 -6 587 0
-588 6 0
-588 -587 0
589 6 -587 0
-589 -6 0
-589 587 0
590 588 589 0
-590 -588 0
-590 -589 0
591 -584 590 0
-591 584 0
-591 -590 0
592 -326 -585 0
-592 326 0
-592 585 0
593 -168 -592 0
-593 168 0
-593 592 0
594 -14 593 0
-594 14 0
-594 -593 0
595 14 -593 0
-595 -14 0
-595 593 0
596 594 595 0
-596 -594 0
-596 -595 0
597 -511 548 0
-597 511 0
-597 -548 0
598 -508 -597 0
-598 508 0
-598 597 0
599 -448 -598 0
-599 448 0
-599 598 0
600 14 77 0
-600 -14 0
-600 -77 0
601 -14 -77 0
-601 14 0
-601 77 0
602 600 601 0
-602 -600 0
-602 -601 0
603 -599 602 0
-603 599 0
-603 -602 0
604 599 -602 0
-604 -599 0
-604 602 0
605 603 604 0
-605 -603 0
-605 -604 0
606 -596 605 0
-606 596 0
-606 -605 0
607 403 -550 0
-607 -403 0
-607 550 0
608 -3 607 0
-608 3 0
-608 -607 0
609 3 -607 0
-609 -3 0
-609 607 0
610 608 609 0
-610 -608 0
-610 -609 0
611 -244 -565 0
-611 244 0
-611 565 0
612 -3 611 0
-612 3 0
-612 -611 0
613 3 -611 0
-613 -3 0
-613 611 0
614 612 613 0
-614 -612 0
-614 -613 0
615 610 -614 0
-615 -610 0
-615 614 0
616 -509 -597 0
-616 509 0
-616 597 0
617 403 -616 0
-617 -403 0
-617 616 0
618 -11 617 0
-618 11 0
-618 -617 0
619 11 -617 0
-619 -11 0
-619 617 0
620 618 619 0
-620 -618 0
-620 -619 0
621 -326 -564 0
-621 326 0
-621 564 0
622 -244 -621 0
-622 244 0
-622 621 0
623 -11 622 0
-623 11 0
-623 -622 0
624 11 -622 0
-624 -11 0
-624 622 0
625 623 624 0
-625 -623 0
-625 -624 0
626 620 -625 0
-626 -620 0
-626 625 0
627 331 -559 0
-627 -331 0
-627 559 0
628 -555 -627 0
-628 555 0
-628 627 0
629 -301 -628 0
-629 301 0
-629 628 0
630 -539 -571 0
-630 539 0
-630 571 0
631 -503 -630 0
-631 503 0
-631 630 0
632 -31 -631 0
-632 31 0
-632 631 0
633 -93 632 0
-633 93 0
-633 -632 0
634 93 -631 0
-634 -93 0
-634 631 0
635 633 634 0
-635 -633 0
-635 -634 0
636 -629 -635 0
-636 629 0
-636 635 0
637 -323 -333 0
-637 323 0
-637 333 0
638 477 -526 0
-638 -477 0
-638 526 0
639 -18 -83 0
-639 18 0
-639 83 0
640 638 639 0
-640 -638 0
-640 -639 0
641 -83 -638 0
-641 83 0
-641 638 0
642 640 641 0
-642 -640 0
-642 -641 0
643 637 -642 0
-643 -637 0
-643 642 0
644 -637 642 0
-644 637 0
-644 -642 0
645 -334 531 0
-645 334 0
-645 -531 0
646 -503 575 0
-646 503 0
-646 -575 0
647 -301 -577 0
-647 301 0
-647 577 0
648 -92 647 0
-648 92 0
-648 -647 0
649 92 -647 0
-649 -92 0
-649 647 0
650 648 649 0
-650 -648 0
-650 -649 0
651 -646 650 0
-651 646 0
-651 -650 0
652 646 -650 0
-652 -646 0
-652 650 0
653 651 652 0
-653 -651 0
-653 -652 0
654 -225 -586 0
-654 225 0
-654 586 0
655 -422 -580 0
-655 422 0
-655 580 0
656 -8 -73 0
-656 8 0
-656 73 0
657 655 656 0
-657 -655 0
-657 -656 0
658 -73 -655 0
-658 73 0
-658 655 0
659 657 658 0
-659 -657 0
-659 -658 0
660 -654 659 0
-660 654 0
-660 -659 0
661 -576 578 0
-661 576 0
-661 -578 0
662 584 -590 0
-662 -584 0
-662 590 0
663 596 -605 0
-663 -596 0
-663 605 0
664 -620 625 0
-664 620 0
-664 -625 0
665 -554 569 0
-665 554 0
-665 -569 0
666 629 635 0
-666 -629 0
-666 -635 0
667 -422 -598 0
-667 422 0
-667 598 0
668 -225 -592 0
-668 225 0
-668 592 0
669 667 668 0
-669 -667 0
-669 -668 0
670 -667 -668 0
-670 667 0
-670 668 0
671 669 670 0
-671 -669 0
-671 -670 0
672 -244 -592 0
-672 244 0
-672 592 0
673 403 -598 0
-673 -403 0
-673 598 0
674 78 -673 0
-674 -78 0
-674 673 0
675 15 -78 0
-675 -15 0
-675 78 0
676 673 -675 0
-676 -673 0
-676 675 0
677 674 676 0
-677 -674 0
-677 -676 0
678 -672 677 0
-678 672 0
-678 -677 0
679 672 -677 0
-679 -672 0
-679 677 0
680 678 679 0
-680 -678 0
-680 -679 0
681 477 575 0
-681 -477 0
-681 -575 0
682 -323 -577 0
-682 323 0
-682 577 0
683 91 -682 0
-683 -91 0
-683 682 0
684 -91 682 0
-684 91 0
-684 -682 0
685 683 684 0
-685 -683 0
-685 -684 0
686 -681 -685 0
-686 681 0
-686 685 0
687 681 685 0
-687 -681 0
-687 -685 0
688 -225 -621 0
-688 225 0
-688 621 0
689 -422 -616 0
-689 422 0
-689 616 0
690 -12 -74 0
-690 12 0
-690 74 0
691 -689 -690 0
-691 689 0
-691 690 0
692 74 689 0
-692 -74 0
-692 -689 0
693 691 692 0
-693 -691 0
-693 -692 0
694 -688 693 0
-694 688 0
-694 -693 0
695 688 -693 0
-695 -688 0
-695 693 0
696 -366 -630 0
-696 366 0
-696 630 0
697 -131 -628 0
-697 131 0
-697 628 0
698 696 -697 0
-698 -696 0
-698 697 0
699 -696 697 0
-699 696 0
-699 -697 0
700 -525 -539 0
-700 525 0
-700 539 0
701 -366 -700 0
-701 366 0
-701 700 0
702 -206 -627 0
-702 206 0
-702 627 0
703 -131 -702 0
-703 131 0
-703 702 0
704 701 -703 0
-704 -701 0
-704 703 0
705 462 -526 0
-705 -462 0
-705 526 0
706 -273 -333 0
-706 273 0
-706 333 0
707 -705 706 0
-707 705 0
-707 -706 0
708 -701 703 0
-708 701 0
-708 -703 0
709 705 -706 0
-709 -705 0
-709 706 0
710 -503 -700 0
-710 503 0
-710 700 0
711 -301 -702 0
-711 301 0
-711 702 0
712 -88 711 0
-712 88 0
-712 -711 0
713 88 -711 0
-713 -88 0
-713 711 0
714 712 713 0
-714 -712 0
-714 -713 0
715 -710 714 0
-715 710 0
-715 -714 0
716 710 -714 0
-716 -710 0
-716 714 0
717 715 716 0
-717 -715 0
-717 -716 0
718 445 -616 0
-718 -445 0
-718 616 0
719 205 -621 0
-719 -205 0
-719 621 0
720 718 719 0
-720 -718 0
-720 -719 0
721 -718 -719 0
-721 718 0
-721 719 0
722 720 721 0
-722 -720 0
-722 -721 0
723 654 -659 0
-723 -654 0
-723 659 0
724 -610 614 0
-724 610 0
-724 -614 0
725 -366 575 0
-725 366 0
-725 -575 0
726 -131 -577 0
-726 131 0
-726 577 0
727 -725 726 0
-727 725 0
-727 -726 0
728 -301 -333 0
-728 301 0
-728 333 0
729 -19 728 0
-729 19 0
-729 -728 0
730 19 -728 0
-730 -19 0
-730 728 0
731 729 730 0
-731 -729 0
-731 -730 0
732 -503 -526 0
-732 503 0
-732 526 0
733 -85 732 0
-733 85 0
-733 -732 0
734 85 -732 0
-734 -85 0
-734 732 0
735 733 734 0
-735 -733 0
-735 -734 0
736 -19 84 0
-736 19 0
-736 -84 0
737 19 -84 0
-737 -19 0
-737 84 0
738 736 737 0
-738 -736 0
-738 -737 0
739 -735 -738 0
-739 735 0
-739 738 0
740 735 738 0
-740 -735 0
-740 -738 0
741 739 740 0
-741 -739 0
-741 -740 0
742 731 741 0
-742 -731 0
-742 -741 0
743 -731 -741 0
-743 731 0
-743 741 0
744 725 -726 0
-744 -725 0
-744 726 0
745 -448 -550 0
-745 448 0
-745 550 0
746 -168 -565 0
-746 168 0
-746 565 0
747 745 746 0
-747 -745 0
-747 -746 0
748 -745 -746 0
-748 745 0
-748 746 0
749 747 748 0
-749 -747 0
-749 -748 0
750 462 -630 0
-750 -462 0
-750 630 0
751 -273 -628 0
-751 273 0
-751 628 0
752 750 -751 0
-752 -750 0
-752 751 0
753 -750 751 0
-753 750 0
-753 -751 0
754 477 -630 0
-754 -477 0
-754 630 0
755 -323 -628 0
-755 323 0
-755 628 0
756 754 755 0
-756 -754 0
-756 -755 0
757 -754 -755 0
-757 754 0
-757 755 0
758 756 757 0
-758 -756 0
-758 -757 0
759 -422 -550 0
-759 422 0
-759 550 0
760 -225 -565 0
-760 225 0
-760 565 0
761 -759 760 0
-761 759 0
-761 -760 0
762 759 -760 0
-762 -759 0
-762 760 0
763 -448 -616 0
-763 448 0
-763 616 0
764 -168 -621 0
-764 168 0
-764 621 0
765 763 -764 0
-765 -763 0
-765 764 0
766 -763 764 0
-766 763 0
-766 -764 0
767 403 -580 0
-767 -403 0
-767 580 0
768 -244 -586 0
-768 244 0
-768 586 0
769 767 768 0
-769 -767 0
-769 -768 0
770 -767 -768 0
-770 767 0
-770 768 0
771 769 770 0
-771 -769 0
-771 -770 0
772 462 -700 0
-772 -462 0
-772 700 0
773 -273 -702 0
-773 273 0
-773 702 0
774 89 -773 0
-774 -89 0
-774 773 0
775 -89 773 0
-775 89 0
-775 -773 0
776 774 775 0
-776 -774 0
-776 -775 0
777 -772 776 0
-777 772 0
-777 -776 0
778 772 -776 0
-778 -772 0
-778 776 0
779 777 778 0
-779 -777 0
-779 -778 0
780 -323 -702 0
-780 323 0
-780 702 0
781 -22 780 0
-781 22 0
-781 -780 0
782 22 -780 0
-782 -22 0
-782 780 0
783 781 782 0
-783 -781 0
-783 -782 0
784 477 -700 0
-784 -477 0
-784 700 0
785 -22 86 0
-785 22 0
-785 -86 0
786 22 -86 0
-786 -22 0
-786 86 0
787 785 786 0
-787 -785 0
-787 -786 0
788 784 787 0
-788 -784 0
-788 -787 0
789 -784 785 0
-789 784 0
-789 -785 0
790 788 789 0
-790 -788 0
-790 -789 0
791 -87 790 0
-791 87 0
-791 -790 0
792 87 -790 0
-792 -87 0
-792 790 0
793 791 792 0
-793 -791 0
-793 -792 0
794 -783 793 0
-794 783 0
-794 -793 0
795 783 -793 0
-795 -783 0
-795 793 0
796 794 795 0
-796 -794 0
-796 -795 0
797 205 -586 0
-797 -205 0
-797 586 0
798 445 -580 0
-798 -445 0
-798 580 0
799 -71 798 0
-799 71 0
-799 -798 0
800 71 -798 0
-800 -71 0
-800 798 0
801 799 800 0
-801 -799 0
-801 -800 0
802 -5 -72 0
-802 5 0
-802 72 0
803 -801 802 0
-803 801 0
-803 -802 0
804 -72 801 0
-804 72 0
-804 -801 0
805 803 804 0
-805 -803 0
-805 -804 0
806 797 805 0
-806 -797 0
-806 -805 0
807 -797 -805 0
-807 797 0
-807 805 0
808 806 807 0
-808 -806 0
-808 -807 0
809 205 -592 0
-809 -205 0
-809 592 0
810 13 809 0
-810 -13 0
-810 -809 0
811 -13 -809 0
-811 13 0
-811 809 0
812 810 811 0
-812 -810 0
-812 -811 0
813 445 -598 0
-813 -445 0
-813 598 0
814 -13 -813 0
-814 13 0
-814 813 0
815 -75 814 0
-815 75 0
-815 -814 0
816 75 -814 0
-816 -75 0
-816 814 0
817 815 816 0
-817 -815 0
-817 -816 0
818 -813 -817 0
-818 813 0
-818 817 0
819 -13 -817 0
-819 13 0
-819 817 0
820 76 -819 0
-820 -76 0
-820 819 0
821 -76 819 0
-821 76 0
-821 -819 0
822 818 820 0
-822 -818 0
-822 -820 0
823 821 -822 0
-823 -821 0
-823 822 0
824 -812 823 0
-824 812 0
-824 -823 0
825 812 -823 0
-825 -812 0
-825 823 0
826 824 825 0
-826 -824 0
-826 -825 0
827 698 699 0
-827 -698 0
-827 -699 0
828 704 707 0
-828 -704 0
-828 -707 0
829 708 709 0
-829 -708 0
-829 -709 0
830 752 753 0
-830 -752 0
-830 -753 0
831 -829 -830 0
-831 829 0
-831 830 0
832 -827 -828 0
-832 827 0
-832 828 0
833 717 758 0
-833 -717 0
-833 -758 0
834 761 762 0
-834 -761 0
-834 -762 0
835 765 766 0
-835 -765 0
-835 -766 0
836 779 -835 0
-836 -779 0
-836 835 0
837 -833 -834 0
-837 833 0
-837 834 0
838 -831 -832 0
-838 831 0
-838 832 0
839 532 579 0
-839 -532 0
-839 -579 0
840 643 644 0
-840 -643 0
-840 -644 0
841 645 661 0
-841 -645 0
-841 -661 0
842 671 686 0
-842 -671 0
-842 -686 0
843 687 722 0
-843 -687 0
-843 -722 0
844 727 744 0
-844 -727 0
-844 -744 0
845 749 771 0
-845 -749 0
-845 -771 0
846 -844 -845 0
-846 844 0
-846 845 0
847 -842 -843 0
-847 842 0
-847 843 0
848 -840 -841 0
-848 840 0
-848 841 0
849 -838 -839 0
-849 838 0
-849 839 0
850 -836 -837 0
-850 836 0
-850 837 0
851 570 591 0
-851 -570 0
-851 -591 0
852 606 615 0
-852 -606 0
-852 -615 0
853 626 636 0
-853 -626 0
-853 -636 0
854 653 660 0
-854 -653 0
-854 -660 0
855 662 663 0
-855 -662 0
-855 -663 0
856 664 665 0
-856 -664 0
-856 -665 0
857 666 694 0
-857 -666 0
-857 -694 0
858 695 723 0
-858 -695 0
-858 -723 0
859 724 -858 0
-859 -724 0
-859 858 0
860 -856 -857 0
-860 856 0
-860 857 0
861 -854 -855 0
-861 854 0
-861 855 0
862 -852 -853 0
-862 852 0
-862 853 0
863 -850 -851 0
-863 850 0
-863 851 0
864 -848 -849 0
-864 848 0
-864 849 0
865 -846 -847 0
-865 846 0
-865 847 0
866 680 742 0
-866 -680 0
-866 -742 0
867 743 -866 0
-867 -743 0
-867 866 0
868 -864 -865 0
-868 864 0
-868 865 0
869 -862 -863 0
-869 862 0
-869 863 0
870 -860 -861 0
-870 860 0
-870 861 0
871 796 -859 0
-871 -796 0
-871 859 0
872 -870 -871 0
-872 870 0
-872 871 0
873 -868 -869 0
-873 868 0
-873 869 0
874 808 -867 0
-874 -808 0
-874 867 0
875 -873 -874 0
-875 873 0
-875 874 0
876 -872 -875 0
-876 872 0
-876 875 0
877 826 -876 0
-877 -826 0
-877 876 0
94 877 0
-94 -877 0
94 0
42 -878 -1034 0
-42 878 0
-42 1034 0
1034 -879 -880 0
-1034 879 0
-1034 880 0
43 -881 -1035 0
-43 881 0
-43 1035 0
1035 -882 -883 0
-1035 882 0
-1035 883 0
44 -884 -1036 0
-44 884 0
-44 1036 0
1036 -885 -886 0
-1036 885 0
-1036 886 0
45 -887 -1037 0
-45 887 0
-45 1037 0
1037 -888 -889 0
-1037 888 0
-1037 889 0
46 -890 -1038 0
-46 890 0
-46 1038 0
1038 -891 -892 0
-1038 891 0
-1038 892 0
47 -893 -1039 0
-47 893 0
-47 1039 0
1039 -894 -895 0
-1039 894 0
-1039 895 0
48 -896 -1040 0
-48 896 0
-48 1040 0
1040 -897 -898 0
-1040 897 0
-1040 898 0
49 -899 -1041 0
-49 899 0
-49 1041 0
1041 -900 -901 0
-1041 900 0
-1041 901 0
50 -902 -1042 0
-50 902 0
-50 1042 0
1042 -903 -904 0
-1042 903 0
-1042 904 0
51 -905 -1043 0
-51 905 0
-51 1043 0
1043 -906 -907 0
-1043 906 0
-1043 907 0
52 -908 -1044 0
-52 908 0
-52 1044 0
1044 -909 -910 0
-1044 909 0
-1044 910 0
53 -911 -1045 0
-53 911 0
-53 1045 0
1045 -912 -913 0
-1045 912 0
-1045 913 0
54 -914 -1046 0
-54 914 0
-54 1046 0
1046 -915 -916 0
-1046 915 0
-1046 916 0
55 -917 -1047 0
-55 917 0
-55 1047 0
1047 -918 -919 0
-1047 918 0
-1047 919 0
56 -920 -1048 0
-56 920 0
-56 1048 0
1048 -921 -922 0
-1048 921 0
-1048 922 0
57 -923 -1049 0
-57 923 0
-57 1049 0
1049 -924 -925 0
-1049 924 0
-1049 925 0
58 -926 -1050 0
-58 926 0
-58 1050 0
1050 -927 -928 0
-1050 927 0
-1050 928 0
59 -929 -1051 0
-59 929 0
-59 1051 0
1051 -930 -931 0
-1051 930 0
-1051 931 0
60 -932 -1052 0
-60 932 0
-60 1052 0
1052 -933 -934 0
-1052 933 0
-1052 934 0
61 -935 -1053 0
-61 935 0
-61 1053 0
1053 -936 -937 0
-1053 936 0
-1053 937 0
62 -938 -1054 0
-62 938 0
-62 1054 0
1054 -939 -940 0
-1054 939 0
-1054 940 0
63 -941 -1055 0
-63 941 0
-63 1055 0
1055 -942 -943 0
-1055 942 0
-1055 943 0
64 -944 -1056 0
-64 944 0
-64 1056 0
1056 -945 -946 0
-1056 945 0
-1056 946 0
65 -947 -1057 0
-65 947 0
-65 1057 0
1057 -948 -949 0
-1057 948 0
-1057 949 0
66 -950 -1058 0
-66 950 0
-66 1058 0
1058 -951 -952 0
-1058 951 0
-1058 952 0
67 -953 -1059 0
-67 953 0
-67 1059 0
1059 -954 -955 0
-1059 954 0
-1059 955 0
68 -956 -1060 0
-68 956 0
-68 1060 0
1060 -957 -958 0
-1060 957 0
-1060 958 0
69 -959 -1061 0
-69 959 0
-69 1061 0
1061 -960 -961 0
-1061 960 0
-1061 961 0
70 -962 -1062 0
-70 962 0
-70 1062 0
1062 -963 -964 0
-1062 963 0
-1062 964 0
71 -965 -1063 0
-71 965 0
-71 1063 0
1063 -966 -967 0
-1063 966 0
-1063 967 0
72 -968 -1064 0
-72 968 0
-72 1064 0
1064 -969 -970 0
-1064 969 0
-1064 970 0
73 -971 -1065 0
-73 971 0
-73 1065 0
1065 -972 -973 0
-1065 972 0
-1065 973 0
74 -974 -1066 0
-74 974 0
-74 1066 0
1066 -975 -976 0
-1066 975 0
-1066 976 0
75 -977 -1067 0
-75 977 0
-75 1067 0
1067 -978 -979 0
-1067 978 0
-1067 979 0
76 -980 -1068 0
-76 980 0
-76 1068 0
1068 -981 -982 0
-1068 981 0
-1068 982 0
77 -983 -1069 0
-77 983 0
-77 1069 0
1069 -984 -985 0
-1069 984 0
-1069 985 0
78 -986 -1070 0
-78 986 0
-78 1070 0
1070 -987 -988 0
-1070 987 0
-1070 988 0
79 -989 -1071 0
-79 989 0
-79 1071 0
1071 -990 -991 0
-1071 990 0
-1071 991 0
80 -992 -1072 0
-80 992 0
-80 1072 0
1072 -993 -994 0
-1072 993 0
-1072 994 0
81 -995 -1073 0
-81 995 0
-81 1073 0
1073 -996 -997 0
-1073 996 0
-1073 997 0
82 -998 -1074 0
-82 998 0
-82 1074 0
1074 -999 -1000 0
-1074 999 0
-1074 1000 0
83 -1001 -1075 0
-83 1001 0
-83 1075 0
1075 -1002 -1003 0
-1075 1002 0
-1075 1003 0
84 -1004 -1076 0
-84 1004 0
-84 1076 0
1076 -1005 -1006 0
-1076 1005 0
-1076 1006 0
85 -1007 -1077 0
-85 1007 0
-85 1077 0
1077 -1008 -1009 0
-1077 1008 0
-1077 1009 0
86 -1010 -1078 0
-86 1010 0
-86 1078 0
1078 -1011 -1012 0
-1078 1011 0
-1078 1012 0
87 -1013 -1079 0
-87 1013 0
-87 1079 0
1079 -1014 -1015 0
-1079 1014 0
-1079 1015 0
88 -1016 -1080 0
-88 1016 0
-88 1080 0
1080 -1017 -1018 0
-1080 1017 0
-1080 1018 0
89 -1019 -1081 0
-89 1019 0
-89 1081 0
1081 -1020 -1021 0
-1081 1020 0
-1081 1021 0
90 -1022 -1082 0
-90 1022 0
-90 1082 0
1082 -1023 -1024 0
-1082 1023 0
-1082 1024 0
91 -1025 -1083 0
-91 1025 0
-91 1083 0
1083 -1026 -1027 0
-1083 1026 0
-1083 1027 0
92 -1028 -1084 0
-92 1028 0
-92 1084 0
1084 -1029 -1030 0
-1084 1029 0
-1084 1030 0
93 -1031 -1085 0
-93 1031 0
-93 1085 0
1085 -1032 -1033 0
-1085 1032 0
-1085 1033 0
